!B3LYP RIJK D3BJ
!def2-TZVP def2/JK
!Opt
!PAL8

* xyzfile 0 1 input.xyz
